131
10000000
2369128
545145
748711
2019880
1595637
1495755
983344
2108232
1152900
1799332
1009381
22498
1273253
1018043
259291
323647
986534
1748962
2237261
163415
1232241
2432781
381067
1283922
1472752
2057350
150796
716486
194488
1996084
2404393
62687
1853631
520615
940241
59
94724
375618
1451966
1473106
1356720
2010197
91486
1198257
2045325
978205
501317
1933352
988920
2495935
1391953
240041
1208630
1426937
619996
673079
360325
2154093
1337458
375630
400963
377067
1372190
376266
1732423
1082989
667040
2461757
2381547
1508374
680497
682428
201573
86401
2244790
1511854
2078114
247904
1783309
119008
939876
352835
650169
33621
2034230
1917325
181048
590606
1553272
1344862
521684
612195
1827407
1248805
1315298
2186370
132615
1343034
1968398
2221576
61485
602636
2061802
607200
553119
1238601
258930
1204826
711357
773086
1349553
57737
1784899
1683480
2297414
2165206
1659379
2399816
1819061
440590
1550298
1529780
1057426
615460
1978274
419954
689737
631145
1642194
454233
2386390
